RT is False
Default write of storage_offers_DA.csv just to have a file (but constraint should be inactive)
Reading model...
...model read.
creating competitive generators file...
...competitive generators recorded.
Loading data...
.. day-ahead data with real-time VRE data read.
Compiling instance...
...instance created.
Creating Offer Mitigation (model will solve as dispatch if TRUE)...
Solving...

Welcome to IBM(R) ILOG(R) CPLEX(R) Interactive Optimizer 12.9.0.0
  with Simplex, Mixed Integer & Barrier Optimizers
5725-A06 5725-A29 5724-Y48 5724-Y49 5724-Y54 5724-Y55 5655-Y21
Copyright IBM Corp. 1988, 2019.  All Rights Reserved.

Type 'help' for a list of available commands.
Type 'help' followed by a command name for more
information on commands.

CPLEX> Logfile 'cplex.log' closed.
Logfile 'C:\Users\llavin\Desktop\test919\logs\tmp2uclmw95.cplex.log' open.
CPLEX> New value for parallel optimization mode: -1
CPLEX> New value for mixed integer optimality gap tolerance: 0.01
CPLEX> New value for integrality tolerance: 1e-09
CPLEX> New value for feasibility tolerance: 0.01
CPLEX> New value for deterministic time limit in ticks: 75000
CPLEX> Problem 'C:\Users\llavin\Desktop\test919\logs\tmp8b97aqoi.pyomo.lp' read.
Read time = 0.05 sec. (3.04 ticks)
CPLEX> Problem name         : C:\Users\llavin\Desktop\test919\logs\tmp8b97aqoi.pyomo.lp
Objective sense      : Minimize
Variables            :   26081  [Nneg: 1,  Box: 21616,  Free: 4464]
Objective nonzeros   :    2496
Linear constraints   :   27515  [Less: 14006,  Greater: 4416,  Equal: 9093]
  Nonzeros           :   89267
  RHS nonzeros       :   12282

Variables            : Min LB: -5000.000        Max UB: 1000000.       
Objective nonzeros   : Min   : 15.73158         Max   : 124.0997       
Linear constraints   :
  Nonzeros           : Min   : 0.8500000        Max   : 3000.000       
  RHS nonzeros       : Min   : 0.008333333      Max   : 5000.000       
CPLEX> CPXPARAM_Parallel                                -1
CPXPARAM_Simplex_Tolerances_Feasibility          0.01
CPXPARAM_DetTimeLimit                            75000
CPXPARAM_MIP_Tolerances_MIPGap                   0.01
CPXPARAM_MIP_Tolerances_Integrality              1.0000000000000001e-09
Parallel mode: opportunistic, using up to 32 threads for concurrent optimization.
Tried aggregator 1 time.
LP Presolve eliminated 21353 rows and 15457 columns.
Aggregator did 765 substitutions.
Reduced LP has 5397 rows, 9859 columns, and 31835 nonzeros.
Presolve time = 0.05 sec. (30.45 ticks)
Symmetry aggregator did 5565 additional substitutions.

Iteration log . . .
Iteration:     1   Dual objective     =             0.000000
Perturbation started.
Iteration:   101   Dual objective     =             0.000000
Iteration:   336   Dual objective     =             1.283264
Iteration:   582   Dual objective     =             1.834140
Iteration:   836   Dual objective     =             1.956906
Iteration:  1036   Dual objective     =             2.072202
Iteration:  1311   Dual objective     =             2.120519
Iteration:  1562   Dual objective     =             2.149831
Iteration:  1780   Dual objective     =             2.177426
Iteration:  1992   Dual objective     =         31507.297572
Iteration:  2173   Dual objective     =         45756.802790
Iteration:  2410   Dual objective     =         64592.710157
Iteration:  2677   Dual objective     =         75931.864796
Iteration:  3113   Dual objective     =         76866.801374
Removing perturbation.
Using devex.

Primal simplex solved model.


Primal simplex - Optimal:  Objective =  7.6864565100e+04
Solution time =    0.16 sec.  Iterations = 1648 (1120)
Deterministic time = 79.32 ticks  (505.22 ticks/sec)

CPLEX> Solution written to file 'C:\Users\llavin\Desktop\test919\logs\tmppqd2fabq.cplex.sol'.
CPLEX> Exporting results... 
...storage offer mitigation file created
Converting model to MPEC...
...converted
NOTE: initial MIP solve with only storage competitive to get feasible solution
Solving...

Welcome to IBM(R) ILOG(R) CPLEX(R) Interactive Optimizer 12.9.0.0
  with Simplex, Mixed Integer & Barrier Optimizers
5725-A06 5725-A29 5724-Y48 5724-Y49 5724-Y54 5724-Y55 5655-Y21
Copyright IBM Corp. 1988, 2019.  All Rights Reserved.

Type 'help' for a list of available commands.
Type 'help' followed by a command name for more
information on commands.

CPLEX> Logfile 'cplex.log' closed.
Logfile 'C:\Users\llavin\Desktop\test919\logs\tmpvoegcuwl.cplex.log' open.
CPLEX> New value for parallel optimization mode: -1
CPLEX> New value for mixed integer optimality gap tolerance: 0.01
CPLEX> New value for integrality tolerance: 1e-09
CPLEX> New value for feasibility tolerance: 0.01
CPLEX> New value for deterministic time limit in ticks: 75000
CPLEX> Problem 'C:\Users\llavin\Desktop\test919\logs\tmpiqi4z6wl.pyomo.lp' read.
Read time = 0.23 sec. (14.78 ticks)
CPLEX> Problem name         : C:\Users\llavin\Desktop\test919\logs\tmpiqi4z6wl.pyomo.lp
Objective sense      : Maximize
Variables            :   53805  [Nneg: 1,  Box: 22000,  Free: 4464,
                                 Binary: 27340]
Objective nonzeros   :    8991
Linear constraints   :  123205  [Less: 41346,  Greater: 59096,  Equal: 22763]
  Nonzeros           :  291812
  RHS nonzeros       :   67426

Variables            : Min LB: -5000.000        Max UB: 1000000.       
Objective nonzeros   : Min   : 0.008333333      Max   : 825.7583       
Linear constraints   :
  Nonzeros           : Min   : 0.008333333      Max   : 1000000.       
  RHS nonzeros       : Min   : 0.008333333      Max   : 1000000.       
CPLEX> CPXPARAM_Parallel                                -1
CPXPARAM_Simplex_Tolerances_Feasibility          0.01
CPXPARAM_DetTimeLimit                            75000
CPXPARAM_MIP_Tolerances_MIPGap                   0.01
CPXPARAM_MIP_Tolerances_Integrality              1.0000000000000001e-09
Tried aggregator 3 times.
MIP Presolve eliminated 88595 rows and 18903 columns.
MIP Presolve added 3397 rows and 0 columns.
MIP Presolve modified 24937 coefficients.
Aggregator did 12990 substitutions.
Reduced MIP has 25017 rows, 21364 columns, and 71372 nonzeros.
Reduced MIP has 8430 binaries, 0 generals, 0 SOSs, and 0 indicators.
Presolve time = 0.28 sec. (173.72 ticks)
Probing fixed 358 vars, tightened 2809 bounds.
Probing time = 1.17 sec. (860.24 ticks)
Tried aggregator 2 times.
MIP Presolve eliminated 808 rows and 717 columns.
MIP Presolve modified 2203 coefficients.
Aggregator did 41 substitutions.
Reduced MIP has 24168 rows, 20606 columns, and 68911 nonzeros.
Reduced MIP has 8072 binaries, 0 generals, 0 SOSs, and 0 indicators.
Presolve time = 0.11 sec. (69.77 ticks)
Probing time = 0.05 sec. (15.66 ticks)
Clique table members: 6425.
MIP emphasis: balance optimality and feasibility.
MIP search method: dynamic search.
Parallel mode: opportunistic, using up to 32 threads.
Root relaxation solution time = 0.45 sec. (313.40 ticks)

        Nodes                                         Cuts/
   Node  Left     Objective  IInf  Best Integer    Best Bound    ItCnt     Gap

      0     0     6077.8813  1643                   6077.8813     6562         
      0     0     6077.8813    12                    Cuts: 20     6568         
      0     0     6077.8813    11                    Cuts: 13     6570         
      0    33     4276.0074    11                   5959.8308     6784         
Elapsed time = 8.30 sec. (5081.97 ticks, tree = 0.02 MB, solutions = 0)
*   503   261      integral     0     3998.6517     5959.8308     9107   49.05%
*   581   308      integral     0     5697.5991     5959.8308     9717    4.60%
    594   241     2309.1397     6     5697.5991     5959.8308     8903    4.60%
*   940   188      integral     0     5959.8308     5959.8301    11196   -0.00%

Clique cuts applied:  6
Implied bound cuts applied:  5
Flow cuts applied:  10
Gomory fractional cuts applied:  2

Root node processing (before b&c):
  Real time             =    6.98 sec. (5061.23 ticks)
Parallel b&c, 32 threads:
  Real time             =    3.38 sec. (614.47 ticks)
  Sync time (average)   =    0.36 sec.
  Wait time (average)   =    0.00 sec.
                          ------------
Total (root+branch&cut) =   10.36 sec. (5675.70 ticks)

Solution pool: 9 solutions saved.

MIP - Integer optimal solution:  Objective =  5.9598307705e+03
Solution time =   10.39 sec.  Iterations = 13362  Nodes = 1037
Deterministic time = 5675.86 ticks  (546.28 ticks/sec)

CPLEX> Incumbent solution written to file 'C:\Users\llavin\Desktop\test919\logs\tmpm693zlmy.cplex.sol'.
CPLEX> NOTE: no warmstart specified for MIP iteration, default behavior is true
NOTE: resolving with all competitive generators using storage-only solution to warmstart
Solving...

Welcome to IBM(R) ILOG(R) CPLEX(R) Interactive Optimizer 12.9.0.0
  with Simplex, Mixed Integer & Barrier Optimizers
5725-A06 5725-A29 5724-Y48 5724-Y49 5724-Y54 5724-Y55 5655-Y21
Copyright IBM Corp. 1988, 2019.  All Rights Reserved.

Type 'help' for a list of available commands.
Type 'help' followed by a command name for more
information on commands.

CPLEX> Logfile 'cplex.log' closed.
Logfile 'C:\Users\llavin\Desktop\test919\logs\tmpfpbzknp5.cplex.log' open.
CPLEX> New value for parallel optimization mode: -1
CPLEX> New value for mixed integer optimality gap tolerance: 0.01
CPLEX> New value for integrality tolerance: 1e-09
CPLEX> New value for feasibility tolerance: 0.01
CPLEX> New value for deterministic time limit in ticks: 75000
CPLEX> Problem 'C:\Users\llavin\Desktop\test919\logs\tmplybmgsw4.pyomo.lp' read.
Read time = 0.23 sec. (14.81 ticks)
CPLEX> MIP start file 'C:\Users\llavin\Desktop\test919\logs\tmp836yi7py.cplex.mst' read.
CPLEX> Problem name         : C:\Users\llavin\Desktop\test919\logs\tmplybmgsw4.pyomo.lp
Objective sense      : Maximize
Variables            :   54525  [Nneg: 1,  Box: 22720,  Free: 4464,
                                 Binary: 27340]
Objective nonzeros   :    9687
Linear constraints   :  123205  [Less: 41346,  Greater: 59096,  Equal: 22763]
  Nonzeros           :  291812
  RHS nonzeros       :   67426

Variables            : Min LB: -5000.000        Max UB: 1000000.       
Objective nonzeros   : Min   : 0.008333333      Max   : 786.9167       
Linear constraints   :
  Nonzeros           : Min   : 0.008333333      Max   : 1000000.       
  RHS nonzeros       : Min   : 0.008333333      Max   : 1000000.       
CPLEX> CPXPARAM_Parallel                                -1
CPXPARAM_Simplex_Tolerances_Feasibility          0.01
CPXPARAM_DetTimeLimit                            75000
CPXPARAM_MIP_Tolerances_MIPGap                   0.01
CPXPARAM_MIP_Tolerances_Integrality              1.0000000000000001e-09
Warning:  No solution found from 1 MIP starts.
Retaining values of one MIP start for possible repair.
Tried aggregator 3 times.
MIP Presolve eliminated 88595 rows and 19623 columns.
MIP Presolve added 3397 rows and 0 columns.
MIP Presolve modified 24937 coefficients.
Aggregator did 12990 substitutions.
Reduced MIP has 25017 rows, 21364 columns, and 71372 nonzeros.
Reduced MIP has 8430 binaries, 0 generals, 0 SOSs, and 0 indicators.
Presolve time = 0.28 sec. (174.08 ticks)
Probing fixed 358 vars, tightened 2809 bounds.
Probing time = 1.17 sec. (860.24 ticks)
Tried aggregator 2 times.
MIP Presolve eliminated 808 rows and 717 columns.
MIP Presolve modified 2203 coefficients.
Aggregator did 41 substitutions.
Reduced MIP has 24168 rows, 20606 columns, and 68911 nonzeros.
Reduced MIP has 8072 binaries, 0 generals, 0 SOSs, and 0 indicators.
Presolve time = 0.11 sec. (69.77 ticks)
Probing time = 0.05 sec. (15.66 ticks)
Clique table members: 6425.
MIP emphasis: balance optimality and feasibility.
MIP search method: dynamic search.
Parallel mode: opportunistic, using up to 32 threads.
Root relaxation solution time = 0.52 sec. (393.41 ticks)

        Nodes                                         Cuts/
   Node  Left     Objective  IInf  Best Integer    Best Bound    ItCnt     Gap

      0     0   118266.5083  1876                 118266.5083     7029         
      0     0   115388.9672   731                   Cuts: 653     7394         
      0     0   115054.6463   640                   Cuts: 289     7525         
      0     0   114911.1493   635                   Cuts: 155     7590         
      0     0   114894.6187   606                   Cuts: 108     7634         
      0     0   114877.3223   586                    Cuts: 97     7662         
      0     0   114877.3223   570                    Cuts: 65     7683         
      0     0   114877.3223   566                    Cuts: 52     7694         
      0     0   114027.1565   561                    Cuts: 62     7739         
      0     0   113036.6142   556                    Cuts: 72     7770         
      0     0   113034.5382   552                    Cuts: 74     7785         
Repair heuristic found nothing.
      0    10    infeasible                          Cuts: 53     8266         
Elapsed time = 11.78 sec. (7383.83 ticks, tree = 0.02 MB, solutions = 0)
    302    54    67918.8274   438                  83214.0955    10173         
    660   232    65268.7113   443                  83214.0955    21065         
   1076   511    54053.0760   423                  83214.0955    28759         
   1632   874    32120.3894   399                  83214.0955    38757         
   2289  1030    16491.4445   375                  83214.0955    44996         
   2945  1359    44971.2594   377                  83214.0955    54656         
   3553  2005     8334.3628   343                  83214.0955    70721         
   4240  2425     2496.7900   323                  83214.0955    74841         
   5220  2686    15928.9137   321                  83214.0955    76506         
   9875  7023   -24842.3089   255                  83214.0955    83754         
Elapsed time = 30.16 sec. (10489.18 ticks, tree = 57.80 MB, solutions = 0)
* 13135  9370      integral     0    27092.6525    83214.0955    86262  207.15%
* 13978 10553      integral     0    27825.7393    83214.0955    90663  199.05%
  14611  2915    infeasible          27825.7393    48399.7850   111530   73.94%
  16522   726    40305.4084    82    27825.7393    48399.7850   122766   73.94%
  17872  1786    34365.8766    74    27825.7393    48399.7850   147987   73.94%
* 20340  2835      integral     0    28096.6244    48399.7850   176855   72.26%
  22943  3666        cutoff          28612.1702    43583.1528   215131   52.32%
  25695  4121    35871.1692    60    30628.0222    39510.9226   270359   29.00%
  28400  4832    35084.5239    64    30628.0222    38303.1761   324016   25.06%
* 30659  5583      integral     0    30852.6442    37555.8579   342954   21.73%
  31454  5811    30682.2660    20    30852.6442    37555.8579   349596   21.73%
Elapsed time = 80.25 sec. (23960.05 ticks, tree = 41.44 MB, solutions = 16)
  34382  6979    33791.9583    62    30852.6442    36932.5797   386683   19.71%
  37131  9206    33594.6211    64    30852.6442    36558.1378   442725   18.49%
  39852  9729    33551.4023    81    30852.6442    36311.6927   459294   17.69%
  40838 11235    34339.3297    65    30852.6442    36022.9054   516885   16.76%
  41761 11252    31279.3268    62    30852.6442    35998.6958   517841   16.68%
  43810 11258    33371.4400    55    30852.6442    35924.7756   519562   16.44%
  46348 11440    34138.6964    62    30852.6442    35806.7118   530126   16.06%
  48989 12885        cutoff          30852.6442    35745.1962   600877   15.86%
  51673 13048    33290.5882    57    30852.6442    35603.1616   608994   15.40%
  54199 13958    33543.3155    56    30852.6442    35519.8044   657012   15.13%
Elapsed time = 129.66 sec. (33501.89 ticks, tree = 118.61 MB, solutions = 17)
  56664 14378    32597.1615    60    30852.6442    35353.2238   676004   14.59%
  59402 15780        cutoff          30852.6442    35288.2792   735874   14.38%
  62237 16477    33045.8157    59    30852.6442    35131.1217   768493   13.87%
  65082 17364        cutoff          30852.6442    35060.0472   799161   13.64%
  67462 17413    34175.6711    57    30852.6442    34944.7609   801910   13.26%
  68667 18098    33153.8932    60    30852.6442    34796.2944   827755   12.78%
  69716 18871    32556.5136    51    30852.6442    34776.5355   854737   12.72%
  71817 19245    33130.7489    61    30852.6442    34755.2178   870943   12.65%
  74780 20172        cutoff          30852.6442    34755.2178   911152   12.65%
  77664 19964    32830.8815    59    30852.6442    34629.0221   902440   12.24%
Elapsed time = 174.66 sec. (43044.25 ticks, tree = 176.41 MB, solutions = 17)
  80482 20726    34005.5817    60    30852.6442    34605.6398   935943   12.16%
  83225 21892        cutoff          30852.6442    34507.0666  1002366   11.84%
  86133 22088    32249.4508    54    30852.6442    34473.6736  1021060   11.74%
  89127 22140    32574.4764    61    30852.6442    34370.9119  1026389   11.40%
  92126 22798    31257.6400    63    30852.6442    34329.1542  1068171   11.27%
  95079 22804    32509.4403    64    30852.6442    34291.4417  1069034   11.15%
  97480 23410        cutoff          30852.6442    34247.8582  1123464   11.00%
  99295 23416        cutoff          30852.6442    34181.4299  1120484   10.79%
 100023 23463        cutoff          30852.6442    34155.3799  1133376   10.70%
 100214 23710    31331.1646    76    30852.6442    34141.3998  1187841   10.66%
Elapsed time = 217.05 sec. (52591.11 ticks, tree = 212.53 MB, solutions = 17)
 100614 23711    33662.3383    65    30852.6442    34128.0076  1190012   10.62%
 101800 23695    33664.9715    56    30852.6442    34061.8789  1188379   10.40%
 103978 23663    31873.0669    58    30852.6442    34046.3712  1199876   10.35%
 106630 23631    33441.8470    60    30852.6442    34006.3613  1244472   10.22%
 109429 23542    31915.4364    59    30852.6442    33987.2781  1267773   10.16%
 112328 23690        cutoff          30852.6442    33904.0797  1198756    9.89%
 115251 23536    33369.0036    59    30852.6442    33904.0797  1264596    9.89%
 118047 23613        cutoff          30852.6442    33870.0266  1225065    9.78%
 120869 23526        cutoff          30852.6442    33803.4418  1354878    9.56%
 123643 23365        cutoff          30852.6442    33793.2723  1380960    9.53%
Elapsed time = 266.61 sec. (62133.32 ticks, tree = 211.02 MB, solutions = 17)
 126413 22828        cutoff          30852.6442    33678.1067  1455444    9.16%
 129232 23643    33355.1825    61    30852.6442    33597.4144  1345725    8.90%
 132077 22886    32985.5787    66    30852.6442    33500.8136  1451905    8.58%
 134857 23100        cutoff          30852.6442    33405.3771  1428624    8.27%
 137620 21454        cutoff          30852.6442    33289.9452  1568525    7.90%
 140290 21250    30965.1760    60    30852.6442    33237.8057  1578164    7.73%
 142901 20236        cutoff          30852.6442    33080.4084  1640424    7.22%
 145617 20822    31229.5184    68    30852.6442    33080.4084  1598016    7.22%
 148136 20021        cutoff          30852.6442    33062.4438  1665380    7.16%
 150012 20420        cutoff          30852.6442    33062.4438  1626353    7.16%
Elapsed time = 307.38 sec. (71675.08 ticks, tree = 183.63 MB, solutions = 17)
 151037 20162        cutoff          30852.6442    33062.4438  1653534    7.16%
 151638 19946        cutoff          30852.6442    33062.4438  1678749    7.16%
 151818 20187    32732.2378    60    30852.6442    33062.4438  1652149    7.16%

GUB cover cuts applied:  3
Clique cuts applied:  3
Cover cuts applied:  23
Implied bound cuts applied:  31
Flow cuts applied:  343
Mixed integer rounding cuts applied:  42
Zero-half cuts applied:  1
Gomory fractional cuts applied:  125

Root node processing (before b&c):
  Real time             =   10.47 sec. (7379.45 ticks)
Parallel b&c, 32 threads:
  Real time             =  297.53 sec. (67633.38 ticks)
  Sync time (average)   =    1.92 sec.
  Wait time (average)   =    0.25 sec.
                          ------------
Total (root+branch&cut) =  308.00 sec. (75012.83 ticks)

Solution pool: 17 solutions saved.

MIP - Deterministic time limit exceeded, integer feasible:  Objective =  3.0852644213e+04
Current MIP best bound =  3.2971055549e+04 (gap = 2118.41, 6.87%)
Solution time =  308.06 sec.  Iterations = 1714028  Nodes = 151857 (19843)
Deterministic time = 75012.99 ticks  (243.50 ticks/sec)

CPLEX> Incumbent solution written to file 'C:\Users\llavin\Desktop\test919\logs\tmpl7z5wkv3.cplex.sol'.
CPLEX> Exporting results... 
